HUN,8,6,902
4,27,1,22,3,30,2,22,0,28,5,23
4,29,2,29,5,26,1,23,3,23,0,26
5,23,4,26,0,21,3,29,2,24,1,25
1,24,4,29,0,28,5,22,2,23,3,24
4,25,3,25,1,22,5,29,2,21,0,27
5,27,2,25,1,30,3,30,0,30,4,24
1,25,2,25,4,30,0,26,3,24,5,25
3,24,5,25,0,29,4,23,2,30,1,23
